dates = {'2022-02-20','2022-02-21','2022-02-22','2022-02-23','2022-02-24','2022-02-25','2022-02-26','2022-02-27','2022-02-28','2022-03-01','2022-03-02','2022-03-03','2022-03-04','2022-03-05','2022-03-06','2022-03-07','2022-03-08','2022-03-09','2022-03-10','2022-03-11','2022-03-12','2022-03-13','2022-03-14','2022-03-15'};

daysOfWeek = [Sunday,Monday,Tuesday,Wednesday,Thursday,Friday,Saturday,Sunday,Monday,Tuesday,Wednesday,Thursday,Friday,Saturday,Sunday,Monday,Tuesday,Wednesday,Thursday,Friday,Saturday,Sunday,Monday,Tuesday];

winter = false;

% For this week, how many people will be here.
numPeople = [161,157,157,157,148,162,148,148,135,139,136,125,125,125,125,117,122,121
,109,109,109,109,98,98];

% Physical workers need 50 to 100 % more nutrients per day.
numPhysicalWorkers = [47.0,47.0,47.0,47.0,47.0,46.0,46.0,46.0,46.0,42.0,42.0,39.0,33.5,33.5
,33.5,33.5,32.0,32.0,31.0,28.0,28.0,28.0,28.0,28.0];

% Males need +25% more nutrients per day.
numMen = [145,133,129,135,129,135,135,121,121,112,112,109,100,100,100,100,100,100
,99,90,90,90,90,80];

% Num people who do not eat categories. contains = {none, meat, milk, gluten, egg, nut, seed, sugars}
numRefusals = [| 0,0,0,0,7,1,0,1 | 0,5,13,0,7,1,4,6 | 0,5,13,0,7,1,4,6 | 0,5,13,0,7,1,4,6 | 0,9,24,4,4,1,12,0 | 0,1,5,0,0,10,0,4 | 0,0,6,0,2,6,0,10 | 0,0,6,0,2,6,0,10 | 0,0,0,0,2,0,3,0 | 0,0,3,8,0,0,3,0 | 0,0,5,6,0,8,0,0 | 0,0,5,6,4,11,0,0 | 0,0,5,6,4,11,0,0 | 0,0,5,6,4,11,0,0 | 0,0,5,6,4,11,0,0 | 0,5,0,1,6,0,0,5 | 0,0,1,2,0,0,0,0 | 0,0,1,10,0,0,0,1 | 0,14,0,7,0,1,0,0 | 0,14,0,7,0,1,0,0 | 0,14,0,7,0,1,0,0 | 0,14,0,7,0,1,0,0 | 0,0,0,4,0,0,3,0 | 0,0,0,4,0,0,3,0 |];

